p cnf 259 1008
c p weight 12 1 0
c p weight -12 1 0
c p weight 13 0 0
c p weight -13 1 0
c p weight 14 -1 0
c p weight -14 1 0
c p weight 16 6.12323399573676603586882014729198302312846062338790031898128063403419218957424163818359375E-17 0
c p weight -16 1 0
c p weight 17 1 0
c p weight -17 1 0
c p weight 18 -1 0
c p weight -18 1 0
c p weight 20 -0.707106781186547461715008466853760182857513427734375 0
c p weight -20 1 0
c p weight 21 0.70710678118654757273731092936941422522068023681640625 0
c p weight -21 1 0
c p weight 22 -1 0
c p weight -22 1 0
c p weight 24 6.12323399573676603586882014729198302312846062338790031898128063403419218957424163818359375E-17 0
c p weight -24 1 0
c p weight 25 1 0
c p weight -25 1 0
c p weight 26 -1 0
c p weight -26 1 0
c p weight 28 -1 0
c p weight -28 1 0
c p weight 29 3.673940397442059375002259206809000622711899723162043418511757408850826323032379150390625E-16 0
c p weight -29 1 0
c p weight 30 -1 0
c p weight -30 1 0
c p weight 32 -1 0
c p weight -32 1 0
c p weight 34 6.12323399573676603586882014729198302312846062338790031898128063403419218957424163818359375E-17 0
c p weight -34 1 0
c p weight 35 1 0
c p weight -35 1 0
c p weight 36 -1 0
c p weight -36 1 0
c p weight 38 -1 0
c p weight -38 1 0
c p weight 40 1 0
c p weight -40 1 0
c p weight 41 0 0
c p weight -41 1 0
c p weight 42 -1 0
c p weight -42 1 0
c p weight 44 6.12323399573676603586882014729198302312846062338790031898128063403419218957424163818359375E-17 0
c p weight -44 1 0
c p weight 45 1 0
c p weight -45 1 0
c p weight 46 -1 0
c p weight -46 1 0
c p weight 48 -0.577350269189625731058868041145615279674530029296875 0
c p weight -48 1 0
c p weight 49 0.8164965809277260344600790631375275552272796630859375 0
c p weight -49 1 0
c p weight 50 -1 0
c p weight -50 1 0
c p weight 52 6.12323399573676603586882014729198302312846062338790031898128063403419218957424163818359375E-17 0
c p weight -52 1 0
c p weight 53 1 0
c p weight -53 1 0
c p weight 54 -1 0
c p weight -54 1 0
c p weight 56 -1 0
c p weight -56 1 0
c p weight 57 3.673940397442059375002259206809000622711899723162043418511757408850826323032379150390625E-16 0
c p weight -57 1 0
c p weight 58 -1 0
c p weight -58 1 0
c p weight 60 -1 0
c p weight -60 1 0
c p weight 62 6.12323399573676603586882014729198302312846062338790031898128063403419218957424163818359375E-17 0
c p weight -62 1 0
c p weight 63 1 0
c p weight -63 1 0
c p weight 64 -1 0
c p weight -64 1 0
c p weight 66 -1 0
c p weight -66 1 0
c p weight 68 1 0
c p weight -68 1 0
c p weight 69 0 0
c p weight -69 1 0
c p weight 70 -1 0
c p weight -70 1 0
c p weight 72 6.12323399573676603586882014729198302312846062338790031898128063403419218957424163818359375E-17 0
c p weight -72 1 0
c p weight 73 1 0
c p weight -73 1 0
c p weight 74 -1 0
c p weight -74 1 0
c p weight 76 -0.499999999999999833466546306226518936455249786376953125 0
c p weight -76 1 0
c p weight 77 0.86602540378443870761060452423407696187496185302734375 0
c p weight -77 1 0
c p weight 78 -1 0
c p weight -78 1 0
c p weight 80 6.12323399573676603586882014729198302312846062338790031898128063403419218957424163818359375E-17 0
c p weight -80 1 0
c p weight 81 1 0
c p weight -81 1 0
c p weight 82 -1 0
c p weight -82 1 0
c p weight 84 -1 0
c p weight -84 1 0
c p weight 85 3.673940397442059375002259206809000622711899723162043418511757408850826323032379150390625E-16 0
c p weight -85 1 0
c p weight 86 -1 0
c p weight -86 1 0
c p weight 88 -1 0
c p weight -88 1 0
c p weight 90 6.12323399573676603586882014729198302312846062338790031898128063403419218957424163818359375E-17 0
c p weight -90 1 0
c p weight 91 1 0
c p weight -91 1 0
c p weight 92 -1 0
c p weight -92 1 0
c p weight 94 -1 0
c p weight -94 1 0
c p weight 96 1 0
c p weight -96 1 0
c p weight 97 0 0
c p weight -97 1 0
c p weight 98 -1 0
c p weight -98 1 0
c p weight 100 6.12323399573676603586882014729198302312846062338790031898128063403419218957424163818359375E-17 0
c p weight -100 1 0
c p weight 101 1 0
c p weight -101 1 0
c p weight 102 -1 0
c p weight -102 1 0
c p weight 104 -0.447213595499957927703604809721582569181919097900390625 0
c p weight -104 1 0
c p weight 105 0.89442719099991585540720961944316513836383819580078125 0
c p weight -105 1 0
c p weight 106 -1 0
c p weight -106 1 0
c p weight 108 6.12323399573676603586882014729198302312846062338790031898128063403419218957424163818359375E-17 0
c p weight -108 1 0
c p weight 109 1 0
c p weight -109 1 0
c p weight 110 -1 0
c p weight -110 1 0
c p weight 112 -1 0
c p weight -112 1 0
c p weight 113 3.673940397442059375002259206809000622711899723162043418511757408850826323032379150390625E-16 0
c p weight -113 1 0
c p weight 114 -1 0
c p weight -114 1 0
c p weight 116 -1 0
c p weight -116 1 0
c p weight 118 6.12323399573676603586882014729198302312846062338790031898128063403419218957424163818359375E-17 0
c p weight -118 1 0
c p weight 119 1 0
c p weight -119 1 0
c p weight 120 -1 0
c p weight -120 1 0
c p weight 122 -1 0
c p weight -122 1 0
c p weight 123 -1 0
c p weight -123 1 0
c p weight 126 -1 0
c p weight -126 1 0
c p weight 128 -1 0
c p weight -128 1 0
c p weight 130 6.12323399573676603586882014729198302312846062338790031898128063403419218957424163818359375E-17 0
c p weight -130 1 0
c p weight 131 1 0
c p weight -131 1 0
c p weight 132 -1 0
c p weight -132 1 0
c p weight 134 -1 0
c p weight -134 1 0
c p weight 136 1 0
c p weight -136 1 0
c p weight 137 0 0
c p weight -137 1 0
c p weight 138 -1 0
c p weight -138 1 0
c p weight 140 6.12323399573676603586882014729198302312846062338790031898128063403419218957424163818359375E-17 0
c p weight -140 1 0
c p weight 141 1 0
c p weight -141 1 0
c p weight 142 -1 0
c p weight -142 1 0
c p weight 144 -0.447213595499958149748209734752890653908252716064453125 0
c p weight -144 1 0
c p weight 145 -0.89442719099991574438490715692751109600067138671875 0
c p weight -145 1 0
c p weight 146 -1 0
c p weight -146 1 0
c p weight 148 6.12323399573676603586882014729198302312846062338790031898128063403419218957424163818359375E-17 0
c p weight -148 1 0
c p weight 149 1 0
c p weight -149 1 0
c p weight 150 -1 0
c p weight -150 1 0
c p weight 152 -1 0
c p weight -152 1 0
c p weight 153 3.673940397442059375002259206809000622711899723162043418511757408850826323032379150390625E-16 0
c p weight -153 1 0
c p weight 154 -1 0
c p weight -154 1 0
c p weight 157 -1 0
c p weight -157 1 0
c p weight 159 -1 0
c p weight -159 1 0
c p weight 161 6.12323399573676603586882014729198302312846062338790031898128063403419218957424163818359375E-17 0
c p weight -161 1 0
c p weight 162 1 0
c p weight -162 1 0
c p weight 163 -1 0
c p weight -163 1 0
c p weight 165 -1 0
c p weight -165 1 0
c p weight 167 1 0
c p weight -167 1 0
c p weight 168 0 0
c p weight -168 1 0
c p weight 169 -1 0
c p weight -169 1 0
c p weight 171 6.12323399573676603586882014729198302312846062338790031898128063403419218957424163818359375E-17 0
c p weight -171 1 0
c p weight 172 1 0
c p weight -172 1 0
c p weight 173 -1 0
c p weight -173 1 0
c p weight 175 -0.500000000000000444089209850062616169452667236328125 0
c p weight -175 1 0
c p weight 176 -0.86602540378443837454369713668711483478546142578125 0
c p weight -176 1 0
c p weight 177 -1 0
c p weight -177 1 0
c p weight 179 6.12323399573676603586882014729198302312846062338790031898128063403419218957424163818359375E-17 0
c p weight -179 1 0
c p weight 180 1 0
c p weight -180 1 0
c p weight 181 -1 0
c p weight -181 1 0
c p weight 183 -1 0
c p weight -183 1 0
c p weight 184 3.673940397442059375002259206809000622711899723162043418511757408850826323032379150390625E-16 0
c p weight -184 1 0
c p weight 185 -1 0
c p weight -185 1 0
c p weight 188 -1 0
c p weight -188 1 0
c p weight 190 -1 0
c p weight -190 1 0
c p weight 192 6.12323399573676603586882014729198302312846062338790031898128063403419218957424163818359375E-17 0
c p weight -192 1 0
c p weight 193 1 0
c p weight -193 1 0
c p weight 194 -1 0
c p weight -194 1 0
c p weight 196 -1 0
c p weight -196 1 0
c p weight 198 1 0
c p weight -198 1 0
c p weight 199 0 0
c p weight -199 1 0
c p weight 200 -1 0
c p weight -200 1 0
c p weight 202 6.12323399573676603586882014729198302312846062338790031898128063403419218957424163818359375E-17 0
c p weight -202 1 0
c p weight 203 1 0
c p weight -203 1 0
c p weight 204 -1 0
c p weight -204 1 0
c p weight 206 -0.57735026918962562003656557862996123731136322021484375 0
c p weight -206 1 0
c p weight 207 -0.81649658092772614548238152565318159759044647216796875 0
c p weight -207 1 0
c p weight 208 -1 0
c p weight -208 1 0
c p weight 210 6.12323399573676603586882014729198302312846062338790031898128063403419218957424163818359375E-17 0
c p weight -210 1 0
c p weight 211 1 0
c p weight -211 1 0
c p weight 212 -1 0
c p weight -212 1 0
c p weight 214 -1 0
c p weight -214 1 0
c p weight 215 3.673940397442059375002259206809000622711899723162043418511757408850826323032379150390625E-16 0
c p weight -215 1 0
c p weight 216 -1 0
c p weight -216 1 0
c p weight 219 -1 0
c p weight -219 1 0
c p weight 221 -1 0
c p weight -221 1 0
c p weight 223 6.12323399573676603586882014729198302312846062338790031898128063403419218957424163818359375E-17 0
c p weight -223 1 0
c p weight 224 1 0
c p weight -224 1 0
c p weight 225 -1 0
c p weight -225 1 0
c p weight 227 -1 0
c p weight -227 1 0
c p weight 229 1 0
c p weight -229 1 0
c p weight 230 0 0
c p weight -230 1 0
c p weight 231 -1 0
c p weight -231 1 0
c p weight 233 6.12323399573676603586882014729198302312846062338790031898128063403419218957424163818359375E-17 0
c p weight -233 1 0
c p weight 234 1 0
c p weight -234 1 0
c p weight 235 -1 0
c p weight -235 1 0
c p weight 237 -0.7071067811865476837596133918850682675838470458984375 0
c p weight -237 1 0
c p weight 238 -0.707106781186547461715008466853760182857513427734375 0
c p weight -238 1 0
c p weight 239 -1 0
c p weight -239 1 0
c p weight 241 6.12323399573676603586882014729198302312846062338790031898128063403419218957424163818359375E-17 0
c p weight -241 1 0
c p weight 242 1 0
c p weight -242 1 0
c p weight 243 -1 0
c p weight -243 1 0
c p weight 245 -1 0
c p weight -245 1 0
c p weight 246 3.673940397442059375002259206809000622711899723162043418511757408850826323032379150390625E-16 0
c p weight -246 1 0
c p weight 247 -1 0
c p weight -247 1 0
c p weight 250 -1 0
c p weight -250 1 0
c p weight 253 -1 0
c p weight -253 1 0
c p weight 256 -1 0
c p weight -256 1 0
c p weight 259 -1 0
c p weight -259 1 0
-9 0
-7 0
-5 0
-3 0
-1 0
11 1 -2 0
-11 1 2 0
-12 1 0
11 -12 -2 0
-11 -12 2 0
11 12 -1 2 0
-11 12 -1 -2 0
-13 1 0
11 -13 2 0
-11 -13 -2 0
11 13 -1 -2 0
-11 13 -1 2 0
-14 1 0
-14 2 0
-14 -11 0
14 11 -1 -2 0
15 -1 11 0
-15 1 11 0
-16 11 0
15 -16 -1 0
-15 -16 1 0
15 16 1 -11 0
-15 16 -1 -11 0
-17 11 0
15 -17 1 0
-15 -17 -1 0
15 17 -1 -11 0
-15 17 1 -11 0
-18 15 0
-18 11 0
-18 -1 0
18 -15 1 -11 0
19 15 -11 0
-19 15 11 0
-20 15 0
19 -20 -11 0
-19 -20 11 0
19 20 -15 11 0
-19 20 -15 -11 0
-21 15 0
19 -21 11 0
-19 -21 -11 0
19 21 -15 -11 0
-19 21 -15 11 0
-22 15 0
-22 11 0
-22 -19 0
22 19 -15 -11 0
23 -15 19 0
-23 15 19 0
-24 19 0
23 -24 -15 0
-23 -24 15 0
23 24 15 -19 0
-23 24 -15 -19 0
-25 19 0
23 -25 15 0
-23 -25 -15 0
23 25 -15 -19 0
-23 25 15 -19 0
-26 23 0
-26 19 0
-26 -15 0
26 -23 15 -19 0
27 23 -19 0
-27 23 19 0
-28 23 0
27 -28 -19 0
-27 -28 19 0
27 28 -23 19 0
-27 28 -23 -19 0
-29 23 0
27 -29 19 0
-27 -29 -19 0
27 29 -23 -19 0
-27 29 -23 19 0
-30 23 0
-30 19 0
-30 -27 0
30 27 -23 -19 0
31 23 -27 0
31 -23 27 0
-31 23 27 0
-31 -23 -27 0
-32 23 0
-32 27 0
32 -23 -27 0
33 -23 31 0
-33 23 31 0
-34 31 0
33 -34 -23 0
-33 -34 23 0
33 34 23 -31 0
-33 34 -23 -31 0
-35 31 0
33 -35 23 0
-33 -35 -23 0
33 35 -23 -31 0
-33 35 23 -31 0
-36 33 0
-36 31 0
-36 -23 0
36 -33 23 -31 0
37 33 -31 0
37 -33 31 0
-37 33 31 0
-37 -33 -31 0
-38 33 0
-38 31 0
38 -33 -31 0
39 3 -4 0
-39 3 4 0
-40 3 0
39 -40 -4 0
-39 -40 4 0
39 40 -3 4 0
-39 40 -3 -4 0
-41 3 0
39 -41 4 0
-39 -41 -4 0
39 41 -3 -4 0
-39 41 -3 4 0
-42 3 0
-42 4 0
-42 -39 0
42 39 -3 -4 0
43 -3 39 0
-43 3 39 0
-44 39 0
43 -44 -3 0
-43 -44 3 0
43 44 3 -39 0
-43 44 -3 -39 0
-45 39 0
43 -45 3 0
-43 -45 -3 0
43 45 -3 -39 0
-43 45 3 -39 0
-46 43 0
-46 39 0
-46 -3 0
46 -43 3 -39 0
47 43 -39 0
-47 43 39 0
-48 43 0
47 -48 -39 0
-47 -48 39 0
47 48 -43 39 0
-47 48 -43 -39 0
-49 43 0
47 -49 39 0
-47 -49 -39 0
47 49 -43 -39 0
-47 49 -43 39 0
-50 43 0
-50 39 0
-50 -47 0
50 47 -43 -39 0
51 -43 47 0
-51 43 47 0
-52 47 0
51 -52 -43 0
-51 -52 43 0
51 52 43 -47 0
-51 52 -43 -47 0
-53 47 0
51 -53 43 0
-51 -53 -43 0
51 53 -43 -47 0
-51 53 43 -47 0
-54 51 0
-54 47 0
-54 -43 0
54 -51 43 -47 0
55 51 -47 0
-55 51 47 0
-56 51 0
55 -56 -47 0
-55 -56 47 0
55 56 -51 47 0
-55 56 -51 -47 0
-57 51 0
55 -57 47 0
-55 -57 -47 0
55 57 -51 -47 0
-55 57 -51 47 0
-58 51 0
-58 47 0
-58 -55 0
58 55 -51 -47 0
59 51 -55 0
59 -51 55 0
-59 51 55 0
-59 -51 -55 0
-60 51 0
-60 55 0
60 -51 -55 0
61 -51 59 0
-61 51 59 0
-62 59 0
61 -62 -51 0
-61 -62 51 0
61 62 51 -59 0
-61 62 -51 -59 0
-63 59 0
61 -63 51 0
-61 -63 -51 0
61 63 -51 -59 0
-61 63 51 -59 0
-64 61 0
-64 59 0
-64 -51 0
64 -61 51 -59 0
65 61 -59 0
65 -61 59 0
-65 61 59 0
-65 -61 -59 0
-66 61 0
-66 59 0
66 -61 -59 0
67 5 -6 0
-67 5 6 0
-68 5 0
67 -68 -6 0
-67 -68 6 0
67 68 -5 6 0
-67 68 -5 -6 0
-69 5 0
67 -69 6 0
-67 -69 -6 0
67 69 -5 -6 0
-67 69 -5 6 0
-70 5 0
-70 6 0
-70 -67 0
70 67 -5 -6 0
71 -5 67 0
-71 5 67 0
-72 67 0
71 -72 -5 0
-71 -72 5 0
71 72 5 -67 0
-71 72 -5 -67 0
-73 67 0
71 -73 5 0
-71 -73 -5 0
71 73 -5 -67 0
-71 73 5 -67 0
-74 71 0
-74 67 0
-74 -5 0
74 -71 5 -67 0
75 71 -67 0
-75 71 67 0
-76 71 0
75 -76 -67 0
-75 -76 67 0
75 76 -71 67 0
-75 76 -71 -67 0
-77 71 0
75 -77 67 0
-75 -77 -67 0
75 77 -71 -67 0
-75 77 -71 67 0
-78 71 0
-78 67 0
-78 -75 0
78 75 -71 -67 0
79 -71 75 0
-79 71 75 0
-80 75 0
79 -80 -71 0
-79 -80 71 0
79 80 71 -75 0
-79 80 -71 -75 0
-81 75 0
79 -81 71 0
-79 -81 -71 0
79 81 -71 -75 0
-79 81 71 -75 0
-82 79 0
-82 75 0
-82 -71 0
82 -79 71 -75 0
83 79 -75 0
-83 79 75 0
-84 79 0
83 -84 -75 0
-83 -84 75 0
83 84 -79 75 0
-83 84 -79 -75 0
-85 79 0
83 -85 75 0
-83 -85 -75 0
83 85 -79 -75 0
-83 85 -79 75 0
-86 79 0
-86 75 0
-86 -83 0
86 83 -79 -75 0
87 79 -83 0
87 -79 83 0
-87 79 83 0
-87 -79 -83 0
-88 79 0
-88 83 0
88 -79 -83 0
89 -79 87 0
-89 79 87 0
-90 87 0
89 -90 -79 0
-89 -90 79 0
89 90 79 -87 0
-89 90 -79 -87 0
-91 87 0
89 -91 79 0
-89 -91 -79 0
89 91 -79 -87 0
-89 91 79 -87 0
-92 89 0
-92 87 0
-92 -79 0
92 -89 79 -87 0
93 89 -87 0
93 -89 87 0
-93 89 87 0
-93 -89 -87 0
-94 89 0
-94 87 0
94 -89 -87 0
95 7 -8 0
-95 7 8 0
-96 7 0
95 -96 -8 0
-95 -96 8 0
95 96 -7 8 0
-95 96 -7 -8 0
-97 7 0
95 -97 8 0
-95 -97 -8 0
95 97 -7 -8 0
-95 97 -7 8 0
-98 7 0
-98 8 0
-98 -95 0
98 95 -7 -8 0
99 -7 95 0
-99 7 95 0
-100 95 0
99 -100 -7 0
-99 -100 7 0
99 100 7 -95 0
-99 100 -7 -95 0
-101 95 0
99 -101 7 0
-99 -101 -7 0
99 101 -7 -95 0
-99 101 7 -95 0
-102 99 0
-102 95 0
-102 -7 0
102 -99 7 -95 0
103 99 -95 0
-103 99 95 0
-104 99 0
103 -104 -95 0
-103 -104 95 0
103 104 -99 95 0
-103 104 -99 -95 0
-105 99 0
103 -105 95 0
-103 -105 -95 0
103 105 -99 -95 0
-103 105 -99 95 0
-106 99 0
-106 95 0
-106 -103 0
106 103 -99 -95 0
107 -99 103 0
-107 99 103 0
-108 103 0
107 -108 -99 0
-107 -108 99 0
107 108 99 -103 0
-107 108 -99 -103 0
-109 103 0
107 -109 99 0
-107 -109 -99 0
107 109 -99 -103 0
-107 109 99 -103 0
-110 107 0
-110 103 0
-110 -99 0
110 -107 99 -103 0
111 107 -103 0
-111 107 103 0
-112 107 0
111 -112 -103 0
-111 -112 103 0
111 112 -107 103 0
-111 112 -107 -103 0
-113 107 0
111 -113 103 0
-111 -113 -103 0
111 113 -107 -103 0
-111 113 -107 103 0
-114 107 0
-114 103 0
-114 -111 0
114 111 -107 -103 0
115 107 -111 0
115 -107 111 0
-115 107 111 0
-115 -107 -111 0
-116 107 0
-116 111 0
116 -107 -111 0
117 -107 115 0
-117 107 115 0
-118 115 0
117 -118 -107 0
-117 -118 107 0
117 118 107 -115 0
-117 118 -107 -115 0
-119 115 0
117 -119 107 0
-117 -119 -107 0
117 119 -107 -115 0
-117 119 107 -115 0
-120 117 0
-120 115 0
-120 -107 0
120 -117 107 -115 0
121 117 -115 0
121 -117 115 0
-121 117 115 0
-121 -117 -115 0
-122 117 0
-122 115 0
122 -117 -115 0
123 -10 0
-123 10 0
124 9 -117 0
124 -9 117 0
-124 9 117 0
-124 -9 -117 0
125 10 -121 0
125 -10 121 0
-125 10 121 0
-125 -10 -121 0
-126 9 0
-126 121 0
-126 117 -10 0
-126 -117 10 0
126 -9 117 10 -121 0
126 -9 -117 -10 -121 0
127 124 -121 0
127 -124 121 0
-127 124 121 0
-127 -124 -121 0
-128 124 0
-128 121 0
128 -124 -121 0
129 -124 127 0
-129 124 127 0
-130 127 0
129 -130 -124 0
-129 -130 124 0
129 130 124 -127 0
-129 130 -124 -127 0
-131 127 0
129 -131 124 0
-129 -131 -124 0
129 131 -124 -127 0
-129 131 124 -127 0
-132 129 0
-132 127 0
-132 -124 0
132 -129 124 -127 0
133 129 -127 0
133 -129 127 0
-133 129 127 0
-133 -129 -127 0
-134 129 0
-134 127 0
134 -129 -127 0
135 129 -133 0
-135 129 133 0
-136 129 0
135 -136 -133 0
-135 -136 133 0
135 136 -129 133 0
-135 136 -129 -133 0
-137 129 0
135 -137 133 0
-135 -137 -133 0
135 137 -129 -133 0
-135 137 -129 133 0
-138 129 0
-138 133 0
-138 -135 0
138 135 -129 -133 0
139 -129 135 0
-139 129 135 0
-140 135 0
139 -140 -129 0
-139 -140 129 0
139 140 129 -135 0
-139 140 -129 -135 0
-141 135 0
139 -141 129 0
-139 -141 -129 0
139 141 -129 -135 0
-139 141 129 -135 0
-142 139 0
-142 135 0
-142 -129 0
142 -139 129 -135 0
143 139 -135 0
-143 139 135 0
-144 139 0
143 -144 -135 0
-143 -144 135 0
143 144 -139 135 0
-143 144 -139 -135 0
-145 139 0
143 -145 135 0
-143 -145 -135 0
143 145 -139 -135 0
-143 145 -139 135 0
-146 139 0
-146 135 0
-146 -143 0
146 143 -139 -135 0
147 -139 143 0
-147 139 143 0
-148 143 0
147 -148 -139 0
-147 -148 139 0
147 148 139 -143 0
-147 148 -139 -143 0
-149 143 0
147 -149 139 0
-147 -149 -139 0
147 149 -139 -143 0
-147 149 139 -143 0
-150 147 0
-150 143 0
-150 -139 0
150 -147 139 -143 0
151 147 -143 0
-151 147 143 0
-152 147 0
151 -152 -143 0
-151 -152 143 0
151 152 -147 143 0
-151 152 -147 -143 0
-153 147 0
151 -153 143 0
-151 -153 -143 0
151 153 -147 -143 0
-151 153 -147 143 0
-154 147 0
-154 143 0
-154 -151 0
154 151 -147 -143 0
155 147 -89 0
155 -147 89 0
-155 147 89 0
-155 -147 -89 0
156 151 -93 0
156 -151 93 0
-156 151 93 0
-156 -151 -93 0
-157 147 0
-157 93 0
-157 89 -151 0
-157 -89 151 0
157 -147 89 151 -93 0
157 -147 -89 -151 -93 0
158 155 -93 0
158 -155 93 0
-158 155 93 0
-158 -155 -93 0
-159 155 0
-159 93 0
159 -155 -93 0
160 -155 158 0
-160 155 158 0
-161 158 0
160 -161 -155 0
-160 -161 155 0
160 161 155 -158 0
-160 161 -155 -158 0
-162 158 0
160 -162 155 0
-160 -162 -155 0
160 162 -155 -158 0
-160 162 155 -158 0
-163 160 0
-163 158 0
-163 -155 0
163 -160 155 -158 0
164 160 -158 0
164 -160 158 0
-164 160 158 0
-164 -160 -158 0
-165 160 0
-165 158 0
165 -160 -158 0
166 160 -164 0
-166 160 164 0
-167 160 0
166 -167 -164 0
-166 -167 164 0
166 167 -160 164 0
-166 167 -160 -164 0
-168 160 0
166 -168 164 0
-166 -168 -164 0
166 168 -160 -164 0
-166 168 -160 164 0
-169 160 0
-169 164 0
-169 -166 0
169 166 -160 -164 0
170 -160 166 0
-170 160 166 0
-171 166 0
170 -171 -160 0
-170 -171 160 0
170 171 160 -166 0
-170 171 -160 -166 0
-172 166 0
170 -172 160 0
-170 -172 -160 0
170 172 -160 -166 0
-170 172 160 -166 0
-173 170 0
-173 166 0
-173 -160 0
173 -170 160 -166 0
174 170 -166 0
-174 170 166 0
-175 170 0
174 -175 -166 0
-174 -175 166 0
174 175 -170 166 0
-174 175 -170 -166 0
-176 170 0
174 -176 166 0
-174 -176 -166 0
174 176 -170 -166 0
-174 176 -170 166 0
-177 170 0
-177 166 0
-177 -174 0
177 174 -170 -166 0
178 -170 174 0
-178 170 174 0
-179 174 0
178 -179 -170 0
-178 -179 170 0
178 179 170 -174 0
-178 179 -170 -174 0
-180 174 0
178 -180 170 0
-178 -180 -170 0
178 180 -170 -174 0
-178 180 170 -174 0
-181 178 0
-181 174 0
-181 -170 0
181 -178 170 -174 0
182 178 -174 0
-182 178 174 0
-183 178 0
182 -183 -174 0
-182 -183 174 0
182 183 -178 174 0
-182 183 -178 -174 0
-184 178 0
182 -184 174 0
-182 -184 -174 0
182 184 -178 -174 0
-182 184 -178 174 0
-185 178 0
-185 174 0
-185 -182 0
185 182 -178 -174 0
186 178 -61 0
186 -178 61 0
-186 178 61 0
-186 -178 -61 0
187 182 -65 0
187 -182 65 0
-187 182 65 0
-187 -182 -65 0
-188 178 0
-188 65 0
-188 61 -182 0
-188 -61 182 0
188 -178 61 182 -65 0
188 -178 -61 -182 -65 0
189 186 -65 0
189 -186 65 0
-189 186 65 0
-189 -186 -65 0
-190 186 0
-190 65 0
190 -186 -65 0
191 -186 189 0
-191 186 189 0
-192 189 0
191 -192 -186 0
-191 -192 186 0
191 192 186 -189 0
-191 192 -186 -189 0
-193 189 0
191 -193 186 0
-191 -193 -186 0
191 193 -186 -189 0
-191 193 186 -189 0
-194 191 0
-194 189 0
-194 -186 0
194 -191 186 -189 0
195 191 -189 0
195 -191 189 0
-195 191 189 0
-195 -191 -189 0
-196 191 0
-196 189 0
196 -191 -189 0
197 191 -195 0
-197 191 195 0
-198 191 0
197 -198 -195 0
-197 -198 195 0
197 198 -191 195 0
-197 198 -191 -195 0
-199 191 0
197 -199 195 0
-197 -199 -195 0
197 199 -191 -195 0
-197 199 -191 195 0
-200 191 0
-200 195 0
-200 -197 0
200 197 -191 -195 0
201 -191 197 0
-201 191 197 0
-202 197 0
201 -202 -191 0
-201 -202 191 0
201 202 191 -197 0
-201 202 -191 -197 0
-203 197 0
201 -203 191 0
-201 -203 -191 0
201 203 -191 -197 0
-201 203 191 -197 0
-204 201 0
-204 197 0
-204 -191 0
204 -201 191 -197 0
205 201 -197 0
-205 201 197 0
-206 201 0
205 -206 -197 0
-205 -206 197 0
205 206 -201 197 0
-205 206 -201 -197 0
-207 201 0
205 -207 197 0
-205 -207 -197 0
205 207 -201 -197 0
-205 207 -201 197 0
-208 201 0
-208 197 0
-208 -205 0
208 205 -201 -197 0
209 -201 205 0
-209 201 205 0
-210 205 0
209 -210 -201 0
-209 -210 201 0
209 210 201 -205 0
-209 210 -201 -205 0
-211 205 0
209 -211 201 0
-209 -211 -201 0
209 211 -201 -205 0
-209 211 201 -205 0
-212 209 0
-212 205 0
-212 -201 0
212 -209 201 -205 0
213 209 -205 0
-213 209 205 0
-214 209 0
213 -214 -205 0
-213 -214 205 0
213 214 -209 205 0
-213 214 -209 -205 0
-215 209 0
213 -215 205 0
-213 -215 -205 0
213 215 -209 -205 0
-213 215 -209 205 0
-216 209 0
-216 205 0
-216 -213 0
216 213 -209 -205 0
217 209 -33 0
217 -209 33 0
-217 209 33 0
-217 -209 -33 0
218 213 -37 0
218 -213 37 0
-218 213 37 0
-218 -213 -37 0
-219 209 0
-219 37 0
-219 33 -213 0
-219 -33 213 0
219 -209 33 213 -37 0
219 -209 -33 -213 -37 0
220 217 -37 0
220 -217 37 0
-220 217 37 0
-220 -217 -37 0
-221 217 0
-221 37 0
221 -217 -37 0
222 -217 220 0
-222 217 220 0
-223 220 0
222 -223 -217 0
-222 -223 217 0
222 223 217 -220 0
-222 223 -217 -220 0
-224 220 0
222 -224 217 0
-222 -224 -217 0
222 224 -217 -220 0
-222 224 217 -220 0
-225 222 0
-225 220 0
-225 -217 0
225 -222 217 -220 0
226 222 -220 0
226 -222 220 0
-226 222 220 0
-226 -222 -220 0
-227 222 0
-227 220 0
227 -222 -220 0
228 222 -226 0
-228 222 226 0
-229 222 0
228 -229 -226 0
-228 -229 226 0
228 229 -222 226 0
-228 229 -222 -226 0
-230 222 0
228 -230 226 0
-228 -230 -226 0
228 230 -222 -226 0
-228 230 -222 226 0
-231 222 0
-231 226 0
-231 -228 0
231 228 -222 -226 0
232 -222 228 0
-232 222 228 0
-233 228 0
232 -233 -222 0
-232 -233 222 0
232 233 222 -228 0
-232 233 -222 -228 0
-234 228 0
232 -234 222 0
-232 -234 -222 0
232 234 -222 -228 0
-232 234 222 -228 0
-235 232 0
-235 228 0
-235 -222 0
235 -232 222 -228 0
236 232 -228 0
-236 232 228 0
-237 232 0
236 -237 -228 0
-236 -237 228 0
236 237 -232 228 0
-236 237 -232 -228 0
-238 232 0
236 -238 228 0
-236 -238 -228 0
236 238 -232 -228 0
-236 238 -232 228 0
-239 232 0
-239 228 0
-239 -236 0
239 236 -232 -228 0
240 -232 236 0
-240 232 236 0
-241 236 0
240 -241 -232 0
-240 -241 232 0
240 241 232 -236 0
-240 241 -232 -236 0
-242 236 0
240 -242 232 0
-240 -242 -232 0
240 242 -232 -236 0
-240 242 232 -236 0
-243 240 0
-243 236 0
-243 -232 0
243 -240 232 -236 0
244 240 -236 0
-244 240 236 0
-245 240 0
244 -245 -236 0
-244 -245 236 0
244 245 -240 236 0
-244 245 -240 -236 0
-246 240 0
244 -246 236 0
-244 -246 -236 0
244 246 -240 -236 0
-244 246 -240 236 0
-247 240 0
-247 236 0
-247 -244 0
247 244 -240 -236 0
248 147 -9 0
248 -147 9 0
-248 147 9 0
-248 -147 -9 0
249 156 -125 0
249 -156 125 0
-249 156 125 0
-249 -156 -125 0
-250 147 0
-250 125 0
-250 9 -156 0
-250 -9 156 0
250 -147 9 156 -125 0
250 -147 -9 -156 -125 0
251 178 -147 0
251 -178 147 0
-251 178 147 0
-251 -178 -147 0
252 187 -249 0
252 -187 249 0
-252 187 249 0
-252 -187 -249 0
-253 178 0
-253 249 0
-253 147 -187 0
-253 -147 187 0
253 -178 147 187 -249 0
253 -178 -147 -187 -249 0
254 209 -178 0
254 -209 178 0
-254 209 178 0
-254 -209 -178 0
255 218 -252 0
255 -218 252 0
-255 218 252 0
-255 -218 -252 0
-256 209 0
-256 252 0
-256 178 -218 0
-256 -178 218 0
256 -209 178 218 -252 0
256 -209 -178 -218 -252 0
257 240 -209 0
257 -240 209 0
-257 240 209 0
-257 -240 -209 0
258 244 -255 0
258 -244 255 0
-258 244 255 0
-258 -244 -255 0
-259 240 0
-259 255 0
-259 209 -244 0
-259 -209 244 0
259 -240 209 244 -255 0
259 -240 -209 -244 -255 0
-240 0
-257 0
-255 0
-254 0
-252 0
-251 0
-249 0
-248 0
-125 0
